Route #1: 159 201 48 168 160 194 21 19 87 55 164 146 79 137 59 133 138 22 180 186 69 198 204 143 144
Route #2: 145 13 62 89 123 73 134 153 11 28 115 36 202 185 179 154 150 41 184 140 117 2 113 126 174 52
Route #3: 127 43 60 196 6 125 12 193 92 107 141 46 94 23 191 116 9 4 93 3 151 86 10 118 80
Route #4: 121 167 124 162 30 197 85 171 158 32 109 189 157 24 1 195 66 139 83 182 61 120 51 8 90 208
Route #5: 183 45 175 50 88 161 199 47 54 29 84 98 152 71 149 20 63 136 53 78 105 110 132 131 16
Route #6: 177 169 58 187 77 122 181 142 147 106 82 57 95 5 33 130 26 156 176 200 203 173 56 38 34 190
Route #7: 163 102 91 165 17 27 99 101 148 206 108 74 155 96 172 37 166 7 129 170 192 67 31 64 135 114 104 76
Route #8: 65 119 40 178 75 97 111 112 39 81 25 35 15 188 207 14 44 49 70 100 205 42 103 72 128 68 18
Cost 19492.000000